Comps = {frontend0, frontend1, frontend2, backend0, backend1, database0, database1};
mustComps = {frontend0, frontend1, frontend2};
Flavs = {tiny, medium, large};
Nodes = {n1, n2, n3};
CRes = {CPU, RAM, storage, bwIn, bwOut};
NRes = {ssl, fwall, encr, avail, latency};
Flav = [{medium, large}, {medium, large}, {medium, large}, {tiny, medium, large}, {tiny, medium, large}, {large}, {large}];
Uses = [{backend0}, {backend1}, {backend1}, {backend0}, {backend1}, {backend1}, {}, {}, {database0}, {database1}, {database0}, {database1}, {}, {}];
MAX_BOUND = 1000000;

worstBounds = [0, 0, 0, 0, 0, 0, 0, 0, 0, MAX_BOUND];
bestBounds = [MAX_BOUND - i | i in worstBounds];

comReq = array2d(CompFlavs, Res, [
  2, 244, 235, 623, 247, 1, 1, 0, 96, MAX_BOUND,
  2, 469, 324, 830, 480, 1, 0, 1, 95, MAX_BOUND,
  2, 372, 492, 626, 433, 1, 1, 0, 97, MAX_BOUND,
  2, 281, 307, 244, 966, 1, 1, 1, 95, MAX_BOUND,
  2, 267, 264, 841, 448, 1, 1, 0, 96, MAX_BOUND,
  8, 493, 317, 408, 955, 1, 1, 0, 97, MAX_BOUND,
  2, 402, 361, 455, 916, 1, 0, 1, 95, MAX_BOUND,
  4, 365, 225, 691, 645, 0, 0, 1, 97, MAX_BOUND,
  4, 330, 401, 409, 929, 1, 1, 0, 97, MAX_BOUND,
  2, 453, 224, 534, 211, 1, 1, 0, 97, MAX_BOUND,
  2, 238, 299, 503, 286, 1, 0, 1, 97, MAX_BOUND,
  4, 399, 312, 463, 207, 1, 0, 1, 96, MAX_BOUND,
  4, 227, 389, 985, 494, 1, 0, 1, 97, MAX_BOUND,
  2, 290, 239, 515, 243, 1, 1, 1, 95, MAX_BOUND,
]);

nodeCap = array2d(Nodes0, Res, [bestBounds[r] | r in Res] ++ [
  8, 26130, 654759, 13566, 14878, 1, 1, 1, 99, 0,
  32, 103827, 942401, 15637, 24550, 1, 0, 1, 99, 0,
  32, 80776, 941572, 11613, 12258, 1, 1, 1, 99, 0,
]);

cost = array2d(Nodes0, Res, [
  0, 0, 0, 0, 0, 0, 0, 0, 0, 0, % no node
  16, 9, 15, 0, 0, 0, 0, 0, 0, 0,
  17, 8, 25, 0, 0, 0, 0, 0, 0, 0,
  15, 5, 24, 0, 0, 0, 0, 0, 0, 0,
]);

cons = array2d(Nodes0, Res, [
  0, 0, 0, 0, 0, 0, 0, 0, 0, 0, % no node
  7, 11, 47, 0, 0, 0, 0, 0, 0, 0,
  17, 4, 28, 0, 0, 0, 0, 0, 0, 0,
  49, 5, 18, 0, 0, 0, 0, 0, 0, 0,
]);

costWeight = 0;
consWeight = 1;

costBudget = 45358;
consBudget = 69102;

depReq = array3d(Comps, Comps, Res, [
  if c1 = frontend2 /\ c2 = backend0 /\ r = N(avail) then
    95
  elseif c1 = frontend0 /\ c2 = backend0 /\ r = N(avail) then
    97
  elseif c1 = frontend2 /\ c2 = backend1 /\ r = N(avail) then
    95
  elseif c1 = frontend0 /\ c2 = backend1 /\ r = N(avail) then
    96
  elseif c1 = frontend1 /\ c2 = backend1 /\ r = N(avail) then
    97
  elseif c1 = frontend1 /\ c2 = backend0 /\ r = N(avail) then
    95
  else
    worstBounds[r]
  endif | c1 in Comps, c2 in Comps, r in Res]);

linkCap = array3d(Nodes0, Nodes0, Res, [
  if ni = 0 \/ nj = 0 then
    bestBounds[r]
  elseif ni = nj /\ r = N(avail) then
    nodeCap[ni,r]
  elseif {ni, nj} = {n1, n3} /\ r = N(avail) then
    99
  elseif {ni, nj} = {n1, n2} /\ r = N(avail) then
    98
  elseif {ni, nj} = {n2, n3} /\ r = N(avail) then
    99
  else
    worstBounds[r]
  endif | ni in Nodes0, nj in Nodes0, r in Res]);

imp = array2d(Comps, Flavs, [
  3, 6, 7,
  3, 5, 10,
  2, 6, 7,
  6, 7, 9,
  2, 6, 7,
  1, 2, 8,
  1, 2, 8,
]);

